\* left-error *\
Maximize
OBJ: violation
Subject To
_C1: g_0 >= 0
_C10: - 1.59099644354 out_0_43493 + pre_0_4145 = 1.8757725516
_C11: - 0.664166297754 g_1 - 0.466697322122 g_2 + pre_0_4146 = -0.368613870326
_C12: 1.03139374988 g_1 + pre_0_43493 = -1.94344984153
_C13: - 2.20471005409 out_1_4146 + pre_1_0 = 0.650122455451
_C14: - 1.59099644354 out_1_43493 + pre_1_4145 = 1.8757725516
_C15: - 0.664166297754 g_0 - 0.466697322122 g_2 + pre_1_4146 = -0.368613870326
_C16: 1.03139374988 g_0 + pre_1_43493 = -1.94344984153
_C17: - 2.20471005409 out_2_4146 + pre_2_0 = 0.650122455451
_C18: - 1.59099644354 out_2_43493 + pre_2_4145 = 1.8757725516
_C19: - 0.664166297754 g_0 - 0.466697322122 g_1 + pre_2_4146 = -0.368613870326
_C2: g_2 <= 1
_C20: 1.03139374988 g_0 + pre_2_43493 = -1.94344984153
_C21: out_0_0 - pre_0_0 >= 0
_C22: out_0_0 >= 0
_C23: out_0_0 - pre_0_0 + 0.162564250536 z_0_0 <= 0.162564250536
_C24: out_0_0 - 2.33066214201 z_0_0 <= 0
_C25: out_0_4145 - pre_0_4145 >= 0
_C26: out_0_4145 >= 0
_C27: out_0_4145 - pre_0_4145 + 2.85719302243 z_0_4145 <= 2.85719302243
_C28: out_0_4145 <= 0
_C29: out_0_4146 - pre_0_4146 >= 0
_C3: g_0 - g_1 <= 0
_C30: out_0_4146 >= 0
_C31: out_0_4146 - pre_0_4146 + 0.368613870326 z_0_4146 <= 0.368613870326
_C32: out_0_4146 - 0.76224974955 z_0_4146 <= 0
_C33: out_0_43493 - pre_0_43493 >= 0
_C34: out_0_43493 >= 0
_C35: out_0_43493 - pre_0_43493 + 2.97484359141 z_0_43493 <= 2.97484359141
_C36: out_0_43493 <= 0
_C37: out_1_0 - pre_1_0 >= 0
_C38: out_1_0 >= 0
_C39: out_1_0 - pre_1_0 + 0.162564250536 z_1_0 <= 0.162564250536
_C4: g_1 - g_2 <= 0
_C40: out_1_0 - 2.33066214201 z_1_0 <= 0
_C41: out_1_4145 - pre_1_4145 >= 0
_C42: out_1_4145 >= 0
_C43: out_1_4145 - pre_1_4145 + 2.85719302243 z_1_4145 <= 2.85719302243
_C44: out_1_4145 <= 0
_C45: out_1_4146 - pre_1_4146 >= 0
_C46: out_1_4146 >= 0
_C47: out_1_4146 - pre_1_4146 + 0.368613870326 z_1_4146 <= 0.368613870326
_C48: out_1_4146 - 0.76224974955 z_1_4146 <= 0
_C49: out_1_43493 - pre_1_43493 >= 0
_C5: - g_0 - g_1 - g_2 + s >= 0
_C50: out_1_43493 >= 0
_C51: out_1_43493 - pre_1_43493 + 2.97484359141 z_1_43493 <= 2.97484359141
_C52: out_1_43493 <= 0
_C53: out_2_0 - pre_2_0 >= 0
_C54: out_2_0 >= 0
_C55: out_2_0 - pre_2_0 + 0.162564250536 z_2_0 <= 0.162564250536
_C56: out_2_0 - 2.33066214201 z_2_0 <= 0
_C57: out_2_4145 - pre_2_4145 >= 0
_C58: out_2_4145 >= 0
_C59: out_2_4145 - pre_2_4145 + 2.85719302243 z_2_4145 <= 2.85719302243
_C6: s >= 1
_C60: out_2_4145 <= 0
_C61: out_2_4146 - pre_2_4146 >= 0
_C62: out_2_4146 >= 0
_C63: out_2_4146 - pre_2_4146 + 0.368613870326 z_2_4146 <= 0.368613870326
_C64: out_2_4146 - 0.76224974955 z_2_4146 <= 0
_C65: out_2_43493 - pre_2_43493 >= 0
_C66: out_2_43493 >= 0
_C67: out_2_43493 - pre_2_43493 + 2.97484359141 z_2_43493 <= 2.97484359141
_C68: out_2_43493 <= 0
_C69: out_0_0 + out_1_0 + out_2_0 - 2 s + violation = 0
_C7: - g_0 - g_1 - g_2 + s - 5.99298642604 s_bin <= 0
_C8: s + 5.99298642604 s_bin <= 6.99298642604
_C9: - 2.20471005409 out_0_4146 + pre_0_0 = 0.650122455451
Bounds
 g_0 <= 1
 g_1 <= 1
 g_2 <= 1
 -0.162564250536 <= pre_0_0 <= 2.33066214201
 -2.85719302243 <= pre_0_4145 <= 0
 -0.368613870326 <= pre_0_4146 <= 0.76224974955
 -2.97484359141 <= pre_0_43493 <= 0
 -0.162564250536 <= pre_1_0 <= 2.33066214201
 -2.85719302243 <= pre_1_4145 <= 0
 -0.368613870326 <= pre_1_4146 <= 0.76224974955
 -2.97484359141 <= pre_1_43493 <= 0
 -0.162564250536 <= pre_2_0 <= 2.33066214201
 -2.85719302243 <= pre_2_4145 <= 0
 -0.368613870326 <= pre_2_4146 <= 0.76224974955
 -2.97484359141 <= pre_2_43493 <= 0
 s free
 violation free
Binaries
s_bin
z_0_0
z_0_4145
z_0_4146
z_0_43493
z_1_0
z_1_4145
z_1_4146
z_1_43493
z_2_0
z_2_4145
z_2_4146
z_2_43493
End
